304 5
10 10 10 10 10 

0 0 0 0 0 0 3 2 14 36 
0 0 0 0 0 0 5 3 5 6 12 289 
6 0 0 0 0 4 1 4 
8 0 0 0 0 8 2 10 7 
9 0 0 0 0 9 2 10 7 
5 0 0 0 0 9 3 11 10 9 
7 0 0 0 0 7 1 8 
6 0 0 0 0 10 1 9 
8 0 0 0 0 4 1 13 
8 0 0 0 0 10 1 13 
8 0 0 0 0 7 1 13 
6 0 0 0 0 7 1 13 
0 0 0 0 0 0 3 58 70 82 
0 0 0 0 0 0 4 15 18 22 34 
9 0 2 0 0 1 2 28 16 
10 0 10 0 0 8 2 33 17 
10 0 9 0 0 6 4 32 27 25 19 
5 0 6 0 0 9 5 32 31 28 27 24 
10 0 5 0 0 6 2 31 20 
4 0 8 0 0 6 1 21 
10 0 10 0 0 10 2 30 23 
3 0 7 0 0 10 2 31 24 
6 0 8 0 0 7 2 24 271 
7 0 6 0 0 10 1 26 
4 0 10 0 0 7 1 26 
2 0 3 0 0 5 1 29 
8 0 8 0 0 9 1 30 
6 0 10 0 0 10 1 29 
10 0 8 0 0 9 1 35 
7 0 10 0 0 8 1 35 
5 0 5 0 0 4 1 35 
6 0 8 0 0 8 1 35 
1 0 10 0 0 7 1 35 
7 0 7 0 0 10 1 35 
0 0 0 0 0 0 1 94 
0 0 0 0 0 0 3 37 40 41 
8 0 0 5 2 0 2 45 38 
2 0 0 10 5 0 2 50 39 
1 0 0 9 10 0 2 46 42 
10 0 0 9 10 0 4 54 51 46 45 
6 0 0 4 8 0 3 54 45 44 
3 0 0 10 9 0 1 43 
7 0 0 5 10 0 2 54 44 
2 0 0 10 10 0 4 56 53 49 47 
1 0 0 6 7 0 2 56 49 
8 0 0 6 6 0 2 47 262 
10 0 0 9 5 0 1 48 
9 0 0 7 3 0 1 52 
2 0 0 10 10 0 1 52 
2 0 0 10 5 0 1 53 
1 0 0 10 7 0 1 53 
4 0 0 8 8 0 1 55 
3 0 0 6 9 0 1 55 
7 0 0 5 9 0 1 56 
10 0 0 6 7 0 1 57 
7 0 0 5 10 0 1 57 
0 0 0 0 0 0 1 94 
0 0 0 0 0 0 3 59 64 68 
6 0 0 0 1 0 3 67 61 60 
2 0 0 0 5 0 2 66 63 
8 0 0 0 10 0 2 62 122 
7 0 0 0 10 0 1 63 
4 0 0 0 10 0 1 65 
5 0 0 0 9 0 1 65 
9 0 0 0 9 0 1 69 
3 0 0 0 8 0 1 69 
10 0 0 0 5 0 1 69 
5 0 0 0 8 0 1 69 
0 0 0 0 0 0 1 94 
0 0 0 0 0 0 1 71 
10 0 0 2 0 0 3 75 73 72 
6 0 0 6 0 0 3 80 77 76 
8 0 0 7 0 0 1 74 
5 0 0 9 0 0 3 80 79 77 
3 0 0 10 0 0 3 80 79 77 
6 0 0 10 0 0 2 79 78 
4 0 0 5 0 0 2 78 190 
3 0 0 10 0 0 1 81 
2 0 0 6 0 0 1 81 
1 0 0 10 0 0 1 81 
0 0 0 0 0 0 1 94 
0 0 0 0 0 0 2 83 85 
7 0 0 0 0 4 3 87 86 84 
9 0 0 0 0 5 3 89 88 237 
4 0 0 0 0 9 2 89 88 
5 0 0 0 0 3 2 90 89 
4 0 0 0 0 10 2 90 89 
1 0 0 0 0 9 2 92 90 
3 0 0 0 0 6 2 92 91 
8 0 0 0 0 10 1 91 
4 0 0 0 0 9 1 93 
6 0 0 0 0 10 1 93 
0 0 0 0 0 0 1 94 
0 0 0 0 0 0 5 95 117 129 151 173 
0 0 0 0 0 0 5 96 103 113 114 115 
10 0 0 3 2 0 1 97 
4 0 0 5 3 0 3 112 111 98 
8 0 0 7 10 0 3 110 109 99 
1 0 0 10 10 0 2 107 100 
7 0 0 6 9 0 2 108 101 
7 0 0 7 9 0 1 102 
7 0 0 8 9 0 1 104 
10 0 0 9 6 0 2 107 106 
2 0 0 6 6 0 1 105 
10 0 0 6 8 0 1 106 
10 0 0 7 10 0 1 116 
2 0 0 10 10 0 1 116 
2 0 0 7 9 0 1 116 
5 0 0 10 7 0 1 116 
4 0 0 10 8 0 1 116 
7 0 0 8 5 0 1 116 
9 0 0 5 9 0 2 116 153 
1 0 0 10 8 0 1 116 
6 0 0 10 9 0 1 116 
1 0 0 6 3 0 1 116 
0 0 0 0 0 0 1 255 
0 0 0 0 0 0 4 118 119 126 127 
5 0 0 0 1 0 2 125 120 
7 0 0 0 8 0 3 124 121 274 
6 0 0 0 10 0 1 121 
5 0 0 0 7 0 1 122 
4 0 0 0 5 0 1 123 
6 0 0 0 10 0 1 128 
2 0 0 0 10 0 1 128 
1 0 0 0 9 0 1 128 
3 0 0 0 9 0 1 128 
4 0 0 0 6 0 1 128 
0 0 0 0 0 0 5 195 207 219 231 243 
0 0 0 0 0 0 2 130 149 
2 3 0 3 0 0 2 148 131 
6 10 0 7 0 0 3 147 146 132 
1 9 0 4 0 0 2 145 133 
6 6 0 6 0 0 3 144 143 134 
8 9 0 10 0 0 1 135 
7 8 0 10 0 0 1 136 
10 7 0 8 0 0 4 142 141 140 137 
6 8 0 8 0 0 1 138 
5 4 0 7 0 0 1 139 
2 10 0 10 0 0 1 150 
9 7 0 5 0 0 1 150 
4 10 0 8 0 0 1 150 
5 6 0 5 0 0 1 150 
10 9 0 10 0 0 1 150 
6 9 0 7 0 0 1 150 
10 10 0 10 0 0 2 150 238 
2 4 0 3 0 0 1 150 
10 8 0 9 0 0 1 150 
5 6 0 10 0 0 1 150 
3 7 0 10 0 0 1 150 
0 0 0 0 0 0 1 255 
0 0 0 0 0 0 5 152 168 169 170 171 
2 3 0 4 0 0 4 167 166 165 153 
1 8 0 8 0 0 2 164 154 
9 8 0 6 0 0 2 163 155 
9 6 0 8 0 0 2 156 293 
6 3 0 7 0 0 2 162 157 
8 8 0 6 0 0 1 158 
4 8 0 6 0 0 1 159 
10 10 0 9 0 0 1 160 
10 10 0 6 0 0 1 161 
8 10 0 8 0 0 1 172 
7 10 0 8 0 0 1 172 
6 6 0 10 0 0 1 172 
5 10 0 8 0 0 1 172 
3 6 0 9 0 0 1 172 
4 8 0 7 0 0 1 172 
9 6 0 5 0 0 1 172 
8 4 0 7 0 0 1 172 
2 6 0 9 0 0 1 172 
9 10 0 10 0 0 1 172 
6 10 0 9 0 0 1 172 
0 0 0 0 0 0 1 255 
0 0 0 0 0 0 2 174 175 
1 0 0 0 4 7 2 182 176 
4 0 0 0 7 5 3 188 179 177 
5 0 0 0 9 10 2 188 178 
9 0 0 0 10 10 3 183 182 180 
7 0 0 0 7 10 2 183 179 
9 0 0 0 7 6 1 180 
6 0 0 0 9 7 1 181 
3 0 0 0 4 7 4 191 190 186 184 
2 0 0 0 7 7 4 191 187 186 185 
5 0 0 0 5 9 3 191 186 184 
9 0 0 0 10 10 1 185 
1 0 0 0 7 3 1 189 
5 0 0 0 7 7 1 189 
5 0 0 0 10 7 1 190 
1 0 0 0 8 7 1 190 
10 0 0 0 7 4 1 192 
3 0 0 0 9 5 1 192 
1 0 0 0 10 10 1 193 
6 0 0 0 8 9 2 194 269 
1 0 0 0 5 10 1 194 
0 0 0 0 0 0 1 255 
0 0 0 0 0 0 2 196 198 
9 1 0 0 0 0 1 197 
8 10 0 0 0 0 2 201 199 
1 5 0 0 0 0 3 205 201 200 
8 10 0 0 0 0 2 204 200 
4 10 0 0 0 0 1 202 
9 8 0 0 0 0 1 203 
9 9 0 0 0 0 1 206 
2 7 0 0 0 0 1 206 
6 6 0 0 0 0 2 206 250 
2 9 0 0 0 0 1 206 
0 0 0 0 0 0 1 255 
0 0 0 0 0 0 3 208 209 278 
3 0 0 0 0 1 2 217 210 
7 0 0 0 0 9 2 217 211 
8 0 0 0 0 10 1 211 
7 0 0 0 0 10 4 216 215 214 212 
1 0 0 0 0 8 1 213 
8 0 0 0 0 9 1 218 
6 0 0 0 0 6 1 218 
10 0 0 0 0 10 1 218 
5 0 0 0 0 5 1 218 
8 0 0 0 0 7 1 218 
0 0 0 0 0 0 1 255 
0 0 0 0 0 0 3 220 223 224 
8 0 0 4 0 0 2 222 221 
4 0 0 6 0 0 2 226 225 
6 0 0 7 0 0 1 225 
1 0 0 9 0 0 1 225 
1 0 0 10 0 0 2 225 233 
7 0 0 10 0 0 2 229 227 
9 0 0 7 0 0 2 229 227 
5 0 0 7 0 0 1 228 
5 0 0 8 0 0 1 230 
5 0 0 7 0 0 1 230 
0 0 0 0 0 0 1 255 
0 0 0 0 0 0 4 232 235 237 241 
8 0 0 0 0 8 1 233 
9 0 0 0 0 6 2 240 234 
2 0 0 0 0 4 2 239 236 
6 0 0 0 0 6 2 239 238 
9 0 0 0 0 7 2 238 295 
10 0 0 0 0 6 1 238 
6 0 0 0 0 10 1 242 
7 0 0 0 0 10 1 242 
9 0 0 0 0 8 1 242 
9 0 0 0 0 10 1 242 
0 0 0 0 0 0 1 255 
0 0 0 0 0 0 2 244 245 
6 0 4 0 0 0 3 250 247 246 
5 0 5 0 0 0 3 253 248 247 
2 0 7 0 0 0 4 253 252 248 276 
7 0 7 0 0 0 2 252 251 
10 0 10 0 0 0 1 249 
5 0 8 0 0 0 1 251 
4 0 10 0 0 0 1 252 
3 0 9 0 0 0 1 254 
5 0 7 0 0 0 1 254 
3 0 8 0 0 0 1 254 
0 0 0 0 0 0 1 255 
0 0 0 0 0 0 4 256 268 280 292 
0 0 0 0 0 0 2 257 261 
2 0 3 0 0 0 2 259 258 
5 0 8 0 0 0 3 265 263 262 
5 0 10 0 0 0 1 260 
10 0 9 0 0 0 4 266 265 263 269 
10 0 9 0 0 0 2 265 263 
1 0 5 0 0 0 2 266 264 
3 0 5 0 0 0 1 264 
4 0 10 0 0 0 1 267 
1 0 10 0 0 0 1 267 
6 0 6 0 0 0 1 267 
0 0 0 0 0 0 1 304 
0 0 0 0 0 0 4 269 271 273 278 
5 0 0 3 0 0 2 277 270 
3 0 0 8 0 0 2 276 272 
5 0 0 8 0 0 2 277 276 
1 0 0 10 0 0 1 274 
4 0 0 10 0 0 1 274 
5 0 0 7 0 0 1 275 
2 0 0 10 0 0 1 279 
6 0 0 5 0 0 2 279 300 
8 0 0 9 0 0 1 279 
5 0 0 5 0 0 1 279 
0 0 0 0 0 0 1 304 
0 0 0 0 0 0 1 281 
7 0 0 5 0 0 3 285 284 282 
4 0 0 8 0 0 1 283 
5 0 0 9 0 0 3 288 287 286 
2 0 0 10 0 0 4 288 287 286 298 
1 0 0 6 0 0 2 288 286 
6 0 0 8 0 0 2 290 289 
1 0 0 8 0 0 2 290 289 
5 0 0 7 0 0 1 289 
1 0 0 8 0 0 1 291 
9 0 0 6 0 0 1 291 
0 0 0 0 0 0 1 304 
0 0 0 0 0 0 3 293 297 302 
9 0 0 0 4 0 1 294 
5 0 0 0 6 0 3 300 299 295 
8 0 0 0 10 0 1 296 
2 0 0 0 3 0 1 298 
4 0 0 0 7 0 1 301 
8 0 0 0 9 0 1 303 
5 0 0 0 7 0 1 303 
8 0 0 0 10 0 1 303 
3 0 0 0 10 0 1 303 
2 0 0 0 9 0 1 303 
0 0 0 0 0 0 1 304 
0 0 0 0 0 0 0 
